SYSTEM = PESMaker single point
GGA = PE
LREAL = Auto
ENCUT = 650
KSPACING = 0.2
KGAMMA = .TRUE.
NSW = 1
IBRION = -1
ALGO = Normal
EDIFF = 1E-06
SIGMA = 0.02
ISMEAR = 0
PREC = Accurate
NELM = 150
