SYSTEM = PESMaker single point
GGA = PE         # Use the PBE functional for exchange-correlation
LREAL = Auto     # Projection operators: automatic
ENCUT = 650      # Cut-off energy for plane-wave basis set, in eV
KSPACING = 0.2   # Automatically calculate k-points
KGAMMA = .TRUE.  # Include the Gamma point
NSW = 0          # Static SCF; no ionic steps
IBRION = -1      # Ions are not moved
ALGO = Normal    # Standard electronic minimization algorithm
EDIFF = 1E-06    # SCF energy convergence in eV
SIGMA = 0.02     # Smearing width in eV
ISMEAR = 0       # Gaussian smearing
PREC = Accurate  # High precision level
NELM = 150       # Maximum electronic SCF steps
LWAVE = .FALSE.  # Do not write WAVECAR
LCHARG = .FALSE. # Do not write CHGCAR or CHG
