SYSTEM = PESMaker single point
ENCUT = 520
EDIFF = 1E-6
IBRION = -1
NSW = 0
ISMEAR = 0
SIGMA = 0.05
LREAL = Auto
